unsat
(:SPACER-cluster-out-of-gas           6
 :SPACER-conj                         29
 :SPACER-expand-pob-undef             43
 :SPACER-inductive-gen                85
 :SPACER-inductive-gen-weaken-fail    107
 :SPACER-inductive-gen-weaken-success 27
 :SPACER-inductive-level              17
 :SPACER-max-depth                    17
 :SPACER-max-query-lvl                17
 :SPACER-non-local-gen                98
 :SPACER-num-active-lemmas            35
 :SPACER-num-ctp-blocked              52
 :SPACER-num-invariants               32
 :SPACER-num-is_invariant             775
 :SPACER-num-lemma-jumped             14
 :SPACER-num-lemmas                   168
 :SPACER-num-pobs                     86
 :SPACER-num-propagations             493
 :SPACER-num-queries                  128
 :SPACER-num-reach-queries            20
 :SPACER-num-reuse-reach-facts        17
 :SPACER-subsume-pob                  17
 :SPACER-subsume-success              32
 :added-eqs                           83132
 :arith-assert-diseq                  41260
 :arith-assert-lower                  73712
 :arith-assert-upper                  81668
 :arith-bound-prop                    6612
 :arith-branch-var                    46
 :arith-conflicts                     260
 :arith-eq-adapter                    9848
 :arith-fixed-eqs                     15210
 :arith-gcd-conflicts                 88
 :arith-gcd-tests                     650
 :arith-gomory-cuts                   4
 :arith-ineq-splits                   46
 :arith-num-rows                      60
 :arith-offset-eqs                    2700
 :arith-patches                       106
 :arith-patches_succ                  50
 :arith-pivots                        7020
 :arith-row-summations                32430
 :arith-tableau-max-columns           148
 :arith-tableau-max-rows              60
 :conflicts                           3378
 :decisions                           56752
 :del-clause                          35852
 :final-checks                        1152
 :iuc_solver.num_proxies              153
 :max-memory                          39.31
 :memory                              38.02
 :minimized-lits                      594
 :mk-bool-var                         37032
 :mk-clause                           41510
 :num-allocs                          1050325653
 :num-checks                          3134
 :pool_solver.checks                  1567
 :pool_solver.checks.sat              256
 :pool_solver.checks.undef            248
 :propagations                        373462
 :rlimit-count                        1552040
 :time                                1.40
 :time.iuc_solver.get_iuc             0.15
 :time.iuc_solver.get_iuc.hyp_reduce1 0.04
 :time.iuc_solver.get_iuc.hyp_reduce2 0.08
 :time.iuc_solver.get_iuc.learn_core  0.02
 :time.pool_solver.proof              0.03
 :time.pool_solver.smt.total          0.73
 :time.pool_solver.smt.total.sat      0.17
 :time.pool_solver.smt.total.undef    0.17
 :time.spacer.ctp                     0.01
 :time.spacer.init_rules              0.00
 :time.spacer.mbp                     0.03
 :time.spacer.solve                   1.37
 :time.spacer.solve.propagate         0.44
 :time.spacer.solve.reach             0.93
 :time.spacer.solve.reach.children    0.06
 :time.spacer.solve.reach.cluster     0.12
 :time.spacer.solve.reach.gen.global  0.08
 :time.spacer.solve.reach.gen.ind     0.09
 :time.spacer.solve.reach.is-reach    0.02)
(:max-memory   39.31
 :memory       38.02
 :num-allocs   1050325653
 :rlimit-count 1552040
 :time         1.40
 :total-time   1.42)
